(declare-sort $$unsorted 0)
(declare-fun tptp.op ($$unsorted $$unsorted) $$unsorted)
(assert (forall ((X0 $$unsorted) (X1 $$unsorted) (X2 $$unsorted) (X3 $$unsorted)) (= (tptp.op X0 X1) (tptp.op (tptp.op X0 X2) (tptp.op X1 X3)))))
(assert (not (forall ((X0 $$unsorted) (X1 $$unsorted) (X2 $$unsorted) (X3 $$unsorted)) (= (tptp.op X0 (tptp.op X1 X2)) (tptp.op (tptp.op X0 X3) X1)))))
(set-info :filename Equation3738_implies_Equation4519)
(check-sat-assuming ( true ))
